;symbolic execution tree
(push)
(assert (le x0 java.lang.Object))
(check-sat)
(push)
(assert (le x1 java.lang.Object))
(check-sat)
(push)
(assert (le x2 java.lang.Object))
(check-sat)
(push)
(assert (le x3 java.lang.Object))
(check-sat)
(push)
(assert (le x4 java.lang.Object))
(check-sat)
(push)
(assert (le x5 java.lang.Object))
(check-sat)
(push)
(assert (le x6 java.lang.Object))
(check-sat)
(push)
(assert (le x7 java.lang.Object))
(check-sat)
(push)
(assert (le x8 java.lang.Object))
(check-sat)
(push)
(assert (le x9 java.lang.Object))
(check-sat)
(push)
(assert (le x10 java.lang.Object))
(check-sat)
(push)
(assert (le x11 java.lang.Object))
(check-sat)
(push)
(assert (le x12 java.lang.Object))
(check-sat)
(push)
(assert (le x13 java.lang.Object))
(check-sat)
(push)
(assert (le x14 java.lang.Object))
(check-sat)
(push)
(assert (le x15 java.lang.Object))
(check-sat)
(push)
(assert (le x4 net.n3.nanoxml.XMLElement))
(check-sat)
(push)
(assert (le x13 net.sourceforge.jxml2sql.database.DatabaseElement))
(check-sat)
(push)
(assert (le x3 java.util.Vector))
(check-sat)
(push)
(assert (le x12 net.n3.nanoxml.XMLElement))
(check-sat)
(pop)
(push)
(assert (not (le x12 net.n3.nanoxml.XMLElement)))
(check-sat)
(pop)
(pop)
(push)
(assert (not (le x3 java.util.Vector)))
(check-sat)
(push)
(assert (le x13 net.sourceforge.jxml2sql.database.DatabaseElement))
(check-sat)
(pop)
(push)
(assert (not (le x13 net.sourceforge.jxml2sql.database.DatabaseElement)))
(check-sat)
(pop)
(push)
(assert (le x13 net.sourceforge.jxml2sql.database.DatabaseField))
(check-sat)
(pop)
(push)
(assert (not (le x13 net.sourceforge.jxml2sql.database.DatabaseField)))
(check-sat)
(pop)
(pop)
(push)
(assert (= x3 java.lang.String))
(check-sat)
(pop)
(push)
(assert (not (= x3 java.lang.String)))
(check-sat)
(pop)
(pop)
(push)
(assert (not (le x13 net.sourceforge.jxml2sql.database.DatabaseElement)))
(check-sat)
(pop)
(push)
(assert (= x15 java.lang.StringBuffer))
(check-sat)
(push)
(assert (= x8 java.lang.StringBuffer))
(check-sat)
(pop)
(push)
(assert (not (= x8 java.lang.StringBuffer)))
(check-sat)
(pop)
(push)
(assert (le x3 java.io.Reader))
(check-sat)
(pop)
(push)
(assert (not (le x3 java.io.Reader)))
(check-sat)
(pop)
(push)
(assert (= x2 java.lang.String))
(check-sat)
(push)
(assert (le x3 net.n3.nanoxml.XMLElement))
(check-sat)
(push)
(assert (= x1 java.lang.String))
(check-sat)
(pop)
(push)
(assert (not (= x1 java.lang.String)))
(check-sat)
(pop)
(pop)
(push)
(assert (not (le x3 net.n3.nanoxml.XMLElement)))
(check-sat)
(push)
(assert (le x4 net.n3.nanoxml.XMLElement))
(check-sat)
(pop)
(push)
(assert (not (le x4 net.n3.nanoxml.XMLElement)))
(check-sat)
(pop)
(push)
(assert (= x14 java.lang.String))
(check-sat)
(pop)
(push)
(assert (not (= x14 java.lang.String)))
(check-sat)
(pop)
(push)
(assert (le x11 net.n3.nanoxml.XMLElement))
(check-sat)
(pop)
(push)
(assert (not (le x11 net.n3.nanoxml.XMLElement)))
(check-sat)
(pop)
(pop)
(pop)
(push)
(assert (not (= x2 java.lang.String)))
(check-sat)
(pop)
(push)
(assert (= x15 java.lang.StringBuffer))
(check-sat)
(pop)
(push)
(assert (not (= x15 java.lang.StringBuffer)))
(check-sat)
(pop)
(pop)
(push)
(assert (not (= x15 java.lang.StringBuffer)))
(check-sat)
(pop)
(push)
(assert (= x14 java.lang.StringBuilder))
(check-sat)
(push)
(assert (le x2 net.n3.nanoxml.XMLElement))
(check-sat)
(pop)
(push)
(assert (not (le x2 net.n3.nanoxml.XMLElement)))
(check-sat)
(pop)
(pop)
(push)
(assert (not (= x14 java.lang.StringBuilder)))
(check-sat)
(push)
(assert (= x1 java.lang.String))
(check-sat)
(pop)
(push)
(assert (not (= x1 java.lang.String)))
(check-sat)
(push)
(assert (= x14 java.lang.StringBuilder))
(check-sat)
(pop)
(push)
(assert (not (= x14 java.lang.StringBuilder)))
(check-sat)
(pop)
(pop)
(push)
(assert (le x10 net.n3.nanoxml.XMLElement))
(check-sat)
(pop)
(push)
(assert (not (le x10 net.n3.nanoxml.XMLElement)))
(check-sat)
(push)
(assert (= x9 java.lang.String))
(check-sat)
(pop)
(push)
(assert (not (= x9 java.lang.String)))
(check-sat)
(pop)
(pop)
(push)
(assert (le x3 net.n3.nanoxml.NonValidator))
(check-sat)
(pop)
(push)
(assert (not (le x3 net.n3.nanoxml.NonValidator)))
(check-sat)
(pop)
(pop)
(push)
(assert (= x7 java.lang.String))
(check-sat)
(push)
(assert (le x8 java.io.PushbackReader))
(check-sat)
(pop)
(push)
(assert (not (le x8 java.io.PushbackReader)))
(check-sat)
(pop)
(push)
(assert (= x2 java.lang.String))
(check-sat)
(pop)
(push)
(assert (not (= x2 java.lang.String)))
(check-sat)
(push)
(assert (= x14 java.lang.String))
(check-sat)
(pop)
(push)
(assert (not (= x14 java.lang.String)))
(check-sat)
(pop)
(pop)
(pop)
(push)
(assert (not (= x7 java.lang.String)))
(check-sat)
(pop)
(push)
(assert (= x1 java.lang.String))
(check-sat)
(pop)
(push)
(assert (not (= x1 java.lang.String)))
(check-sat)
(pop)
(push)
(assert (le x4 net.n3.nanoxml.XMLElement))
(check-sat)
(push)
(assert (= x8 java.lang.StringBuffer))
(check-sat)
(pop)
(push)
(assert (not (= x8 java.lang.StringBuffer)))
(check-sat)
(pop)
(push)
(assert (le x13 net.sourceforge.jxml2sql.database.DatabaseElement))
(check-sat)
(push)
(assert (= x5 java.lang.String))
(check-sat)
(pop)
(push)
(assert (not (= x5 java.lang.String)))
(check-sat)
(pop)
(push)
(assert (= x6 java.lang.StringBuffer))
(check-sat)
(pop)
(push)
(assert (not (= x6 java.lang.StringBuffer)))
(check-sat)
(pop)
(pop)
(push)
(assert (not (le x13 net.sourceforge.jxml2sql.database.DatabaseElement)))
(check-sat)
(push)
(assert (le x4 net.n3.nanoxml.XMLElement))
(check-sat)
(pop)
(push)
(assert (not (le x4 net.n3.nanoxml.XMLElement)))
(check-sat)
(pop)
(push)
(assert (le x11 java.util.Properties))
(check-sat)
(push)
(assert (le x4 net.n3.nanoxml.XMLElement))
(check-sat)
(pop)
(push)
(assert (not (le x4 net.n3.nanoxml.XMLElement)))
(check-sat)
(pop)
(pop)
(push)
(assert (not (le x11 java.util.Properties)))
(check-sat)
(pop)
(push)
(assert (= x7 java.lang.StringBuffer))
(check-sat)
(push)
(assert (= x3 java.lang.String))
(check-sat)
(pop)
(push)
(assert (not (= x3 java.lang.String)))
(check-sat)
(pop)
(pop)
(push)
(assert (not (= x7 java.lang.StringBuffer)))
(check-sat)
(pop)
(pop)
(push)
(assert (le x2 net.n3.nanoxml.XMLElement))
(check-sat)
(pop)
(push)
(assert (not (le x2 net.n3.nanoxml.XMLElement)))
(check-sat)
(pop)
(push)
(assert (= x13 java.lang.String))
(check-sat)
(push)
(assert (= x7 java.lang.String))
(check-sat)
(pop)
(push)
(assert (not (= x7 java.lang.String)))
(check-sat)
(pop)
(pop)
(push)
(assert (not (= x13 java.lang.String)))
(check-sat)
(pop)
(push)
(assert (= x8 java.lang.String))
(check-sat)
(push)
(assert (= x8 java.lang.String))
(check-sat)
(pop)
(push)
(assert (not (= x8 java.lang.String)))
(check-sat)
(pop)
(pop)
(push)
(assert (not (= x8 java.lang.String)))
(check-sat)
(pop)
(push)
(assert (le x11 net.n3.nanoxml.XMLElement))
(check-sat)
(pop)
(push)
(assert (not (le x11 net.n3.nanoxml.XMLElement)))
(check-sat)
(pop)
(pop)
(push)
(assert (not (le x4 net.n3.nanoxml.XMLElement)))
(check-sat)
(pop)
(push)
(assert (= x15 java.lang.String))
(check-sat)
(pop)
(push)
(assert (not (= x15 java.lang.String)))
(check-sat)
(pop)
(push)
(assert (= x2 java.lang.String))
(check-sat)
(push)
(assert (= x1 java.lang.String))
(check-sat)
(push)
(assert (le x14 java.util.Vector))
(check-sat)
(pop)
(push)
(assert (not (le x14 java.util.Vector)))
(check-sat)
(pop)
(pop)
(push)
(assert (not (= x1 java.lang.String)))
(check-sat)
(pop)
(pop)
(push)
(assert (not (= x2 java.lang.String)))
(check-sat)
(pop)
(push)
(assert (= x2 java.lang.String))
(check-sat)
(push)
(assert (= x6 java.lang.StringBuffer))
(check-sat)
(pop)
(push)
(assert (not (= x6 java.lang.StringBuffer)))
(check-sat)
(pop)
(pop)
(push)
(assert (not (= x2 java.lang.String)))
(check-sat)
(pop)
(pop)
(push)
(assert (not (le x4 net.n3.nanoxml.XMLElement)))
(check-sat)
(push)
(assert (le x7 java.util.Properties))
(check-sat)
(pop)
(push)
(assert (not (le x7 java.util.Properties)))
(check-sat)
(pop)
(push)
(assert (le x0 net.n3.nanoxml.XMLElement))
(check-sat)
(push)
(assert (le x0 net.n3.nanoxml.XMLElement))
(check-sat)
(pop)
(push)
(assert (not (le x0 net.n3.nanoxml.XMLElement)))
(check-sat)
(pop)
(pop)
(push)
(assert (not (le x0 net.n3.nanoxml.XMLElement)))
(check-sat)
(push)
(assert (le x14 net.n3.nanoxml.XMLElement))
(check-sat)
(pop)
(push)
(assert (not (le x14 net.n3.nanoxml.XMLElement)))
(check-sat)
(pop)
(push)
(assert (= x13 java.lang.String))
(check-sat)
(pop)
(push)
(assert (not (= x13 java.lang.String)))
(check-sat)
(push)
(assert (= x15 java.lang.String))
(check-sat)
(pop)
(push)
(assert (not (= x15 java.lang.String)))
(check-sat)
(push)
(assert (= x6 java.lang.StringBuffer))
(check-sat)
(pop)
(push)
(assert (not (= x6 java.lang.StringBuffer)))
(check-sat)
(pop)
(push)
(assert (le x9 java.util.Properties))
(check-sat)
(pop)
(push)
(assert (not (le x9 java.util.Properties)))
(check-sat)
(pop)
(pop)
(pop)
(pop)
(push)
(assert (le x11 java.util.Properties))
(check-sat)
(push)
(assert (le x7 net.n3.nanoxml.XMLElement))
(check-sat)
(push)
(assert (le x12 net.n3.nanoxml.XMLElement))
(check-sat)
(pop)
(push)
(assert (not (le x12 net.n3.nanoxml.XMLElement)))
(check-sat)
(pop)
(pop)
(push)
(assert (not (le x7 net.n3.nanoxml.XMLElement)))
(check-sat)
(pop)
(push)
(assert (le x7 net.n3.nanoxml.XMLElement))
(check-sat)
(pop)
(push)
(assert (not (le x7 net.n3.nanoxml.XMLElement)))
(check-sat)
(pop)
(pop)
(push)
(assert (not (le x11 java.util.Properties)))
(check-sat)
(push)
(assert (le x13 java.util.Properties))
(check-sat)
(push)
(assert (le x4 net.n3.nanoxml.XMLElement))
(check-sat)
(pop)
(push)
(assert (not (le x4 net.n3.nanoxml.XMLElement)))
(check-sat)
(pop)
(pop)
(push)
(assert (not (le x13 java.util.Properties)))
(check-sat)
(pop)
(pop)
(pop)
